Instance name: /home/cuong/CLionProjects/uMV-FSTSP/50_dis_rand_ins/v17
Write arg val: 1

drone speed: 1 miles/minute
uav non-eligible customer: 2 11 
Printing tau:
0 15.1967 57.336 63.4734 70.2559 41.7516 70.1694 65.02 70.2556 112.844 117.108 0 
15.1967 0 57.1856 52.6273 55.0592 26.5549 54.9726 49.8232 55.0589 97.6475 101.911 15.1967 
57.336 57.1856 0 6.13737 37.9879 36.5493 48.0724 88.2699 86.6415 55.5082 59.7719 57.336 
63.4734 52.6273 6.13737 0 33.4296 31.991 43.514 83.7115 82.0832 49.3708 53.6346 63.4734 
70.2559 55.0592 37.9879 33.4296 0 28.5043 10.0844 50.2819 48.6536 42.5884 46.8521 70.2559 
41.7516 26.5549 36.5493 31.991 28.5043 0 28.4177 51.7205 50.0922 71.0926 75.3563 41.7516 
70.1694 54.9726 48.0724 43.514 10.0844 28.4177 0 40.1975 38.5692 42.6749 46.9386 70.1694 
65.02 49.8232 88.2699 83.7115 50.2819 51.7205 40.1975 0 5.23565 47.8243 56.1732 65.02 
70.2556 55.0589 86.6415 82.0832 48.6536 50.0922 38.5692 5.23565 0 42.5886 54.5448 70.2556 
112.844 97.6475 55.5082 49.3708 42.5884 71.0926 42.6749 47.8243 42.5886 0 18.404 112.844 
117.108 101.911 59.7719 53.6346 46.8521 75.3563 46.9386 56.1732 54.5448 18.404 0 117.108 
0 0 0 0 0 0 0 0 0 0 0 0 
Printing tau_prime:
0 4.77643 19.7455 20.323 18.7999 11.4465 18.607 20.348 21.3236 29.9328 31.3209 0 
4.77643 0 18.8359 18.9371 15.4618 8.91767 14.7758 15.5717 16.5577 25.9533 27.8301 4.77643 
19.7455 18.8359 0 2.02718 10.6397 10.5359 13.1935 23.4946 23.2283 19.8988 17.99 19.7455 
20.323 18.9371 2.02718 0 9.04497 10.2536 11.6742 22.2012 21.8398 17.8828 15.9871 20.323 
18.7999 15.4618 10.6397 9.04497 0 7.56796 2.67413 13.4051 12.9012 11.7703 12.5214 18.7999 
11.4465 8.91767 10.5359 10.2536 7.56796 0 8.13131 15.0385 15.2826 19.2108 20.0167 11.4465 
18.607 14.7758 13.1935 11.6742 2.67413 8.13131 0 10.7461 10.2272 11.3342 13.1476 18.607 
20.348 15.5717 23.4946 22.2012 13.4051 15.0385 10.7461 0 1.45391 16.1591 20.3134 20.348 
21.3236 16.5577 23.2283 21.8398 12.9012 15.2826 10.2272 1.45391 0 14.8112 19.0666 21.3236 
29.9328 25.9533 19.8988 17.8828 11.7703 19.2108 11.3342 16.1591 14.8112 0 5.00934 29.9328 
31.3209 27.8301 17.99 15.9871 12.5214 20.0167 13.1476 20.3134 19.0666 5.00934 0 31.3209 
0 0 0 0 0 0 0 0 0 0 0 0 
Version identifier: 22.1.1.0 | 2022-11-28 | 9160aff4d
CPXPARAM_MIP_Tolerances_Integrality              0
Tried aggregator 1 time.
MIP Presolve eliminated 1 rows and 12 columns.
MIP Presolve modified 20 coefficients.
Reduced MIP has 122 rows, 120 columns, and 510 nonzeros.
Reduced MIP has 110 binaries, 0 generals, 0 SOSs, and 0 indicators.
Presolve time = 0.00 sec. (0.27 ticks)
Found incumbent of value 614.023300 after 0.00 sec. (0.75 ticks)
Probing time = 0.00 sec. (0.26 ticks)
Cover probing fixed 0 vars, tightened 10 bounds.
Tried aggregator 1 time.
Detecting symmetries...
MIP Presolve eliminated 10 rows and 0 columns.
MIP Presolve modified 180 coefficients.
Reduced MIP has 112 rows, 120 columns, and 490 nonzeros.
Reduced MIP has 110 binaries, 0 generals, 0 SOSs, and 0 indicators.
Presolve time = 0.00 sec. (0.35 ticks)
Probing time = 0.00 sec. (0.26 ticks)
Clique table members: 67.
MIP emphasis: balance optimality and feasibility.
MIP search method: dynamic search.
Parallel mode: deterministic, using up to 20 threads.
Root relaxation solution time = 0.00 sec. (0.20 ticks)

        Nodes                                         Cuts/
   Node  Left     Objective  IInf  Best Integer    Best Bound    ItCnt     Gap

*     0+    0                          614.0233        0.0000           100.00%
      0     0      175.0913    20      614.0233      175.0913       23   71.48%
*     0+    0                          342.0096      175.0913            48.81%
      0     0      267.4132    19      342.0096      Cuts: 25       51   21.81%
      0     0      267.4132    20      342.0096      Cuts: 38       71   21.81%
      0     0      267.4132    14      342.0096       Cuts: 9       74   21.81%
      0     0      267.4132    14      342.0096       Cuts: 9       80   21.81%
*     0+    0                          306.1390      267.4132            12.65%
*     0+    0                          303.8740      273.3081            10.06%
      0     0        cutoff            303.8740      303.8740       80    0.00%
Elapsed time = 0.02 sec. (11.09 ticks, tree = 0.01 MB, solutions = 4)

Clique cuts applied:  4
Implied bound cuts applied:  3
Mixed integer rounding cuts applied:  4
Zero-half cuts applied:  1

Root node processing (before b&c):
  Real time             =    0.02 sec. (11.10 ticks)
Parallel b&c, 20 threads:
  Real time             =    0.00 sec. (0.00 ticks)
  Sync time (average)   =    0.00 sec.
  Wait time (average)   =    0.00 sec.
                          ------------
Total (root+branch&cut) =    0.02 sec. (11.10 ticks)

TSP solution for this instance: 0 2 3 10 9 8 7 6 4 5 1 11 
12
Warmstart X[1][0] == 1
Warmstart X[2][2] == 1
Warmstart X[3][3] == 1
Warmstart X[4][10] == 1
Warmstart X[5][9] == 1
Warmstart X[6][8] == 1
Warmstart X[7][7] == 1
Warmstart X[8][6] == 1
Warmstart X[9][4] == 1
Warmstart X[10][5] == 1
Warmstart X[11][1] == 1
---------------------------------------------
Calculate max stage gap for sortie.... 
Stage gap of 4 with smallest length = 20.9426 violated endurance constraint!
---------------------------------------------
Variable z[1][5] was set to 0.
Variable z[1][6] was set to 0.
Variable z[1][7] was set to 0.
Variable z[1][8] was set to 0.
Variable z[1][9] was set to 0.
Variable z[1][10] was set to 0.
Variable z[1][11] was set to 0.
Variable z[1][12] was set to 0.
Variable z[2][6] was set to 0.
Variable z[2][7] was set to 0.
Variable z[2][8] was set to 0.
Variable z[2][9] was set to 0.
Variable z[2][10] was set to 0.
Variable z[2][11] was set to 0.
Variable z[2][12] was set to 0.
Variable z[3][7] was set to 0.
Variable z[3][8] was set to 0.
Variable z[3][9] was set to 0.
Variable z[3][10] was set to 0.
Variable z[3][11] was set to 0.
Variable z[3][12] was set to 0.
Variable z[4][8] was set to 0.
Variable z[4][9] was set to 0.
Variable z[4][10] was set to 0.
Variable z[4][11] was set to 0.
Variable z[4][12] was set to 0.
Variable z[5][9] was set to 0.
Variable z[5][10] was set to 0.
Variable z[5][11] was set to 0.
Variable z[5][12] was set to 0.
Variable z[6][10] was set to 0.
Variable z[6][11] was set to 0.
Variable z[6][12] was set to 0.
Variable z[7][11] was set to 0.
Variable z[7][12] was set to 0.
Variable z[8][12] was set to 0.
Num constraint added = 5346
Warning:  Output names have been modified due to duplicate names or characters invalid in LP format.
Version identifier: 22.1.1.0 | 2022-11-28 | 9160aff4d
CPXPARAM_TimeLimit                               200
CPXPARAM_MIP_Tolerances_Integrality              0
1 of 1 MIP starts provided solutions.
MIP start 'm1' defined initial solution with objective 303.8740.
Tried aggregator 2 times.
MIP Presolve eliminated 7255 rows and 2254 columns.
MIP Presolve modified 2378 coefficients.
Aggregator did 33 substitutions.
Reduced MIP has 1146 rows, 2489 columns, and 36982 nonzeros.
Reduced MIP has 2468 binaries, 0 generals, 0 SOSs, and 0 indicators.
Presolve time = 0.05 sec. (114.10 ticks)
Probing fixed 242 vars, tightened 0 bounds.
Probing changed sense of 8 constraints.
Probing time = 0.04 sec. (85.19 ticks)
Cover probing fixed 0 vars, tightened 23 bounds.
Tried aggregator 2 times.
MIP Presolve eliminated 74 rows and 246 columns.
MIP Presolve modified 201 coefficients.
Aggregator did 15 substitutions.
Reduced MIP has 1056 rows, 2228 columns, and 28131 nonzeros.
Reduced MIP has 2207 binaries, 0 generals, 0 SOSs, and 0 indicators.
Presolve time = 0.03 sec. (53.19 ticks)
Probing time = 0.00 sec. (4.82 ticks)
Tried aggregator 1 time.
Detecting symmetries...
Reduced MIP has 1056 rows, 2228 columns, and 28131 nonzeros.
Reduced MIP has 2207 binaries, 0 generals, 0 SOSs, and 0 indicators.
Presolve time = 0.01 sec. (23.48 ticks)
Probing time = 0.00 sec. (4.79 ticks)
Clique table members: 8671.
MIP emphasis: balance optimality and feasibility.
MIP search method: dynamic search.
Parallel mode: deterministic, using up to 20 threads.
Root relaxation solution time = 0.10 sec. (205.75 ticks)

        Nodes                                         Cuts/
   Node  Left     Objective  IInf  Best Integer    Best Bound    ItCnt     Gap

*     0+    0                          303.8740       15.1967            95.00%
      0     0      170.6547   337      303.8740      170.6547       46   43.84%
      0     0      184.2644   279      303.8740      Cuts: 69     2189   39.36%
      0     0      194.0527   367      303.8740      Cuts: 43     3683   36.14%
      0     0      194.5301   367      303.8740      Cuts: 16     3840   35.98%
      0     0      195.6295   378      303.8740   ZeroHalf: 7     4225   35.62%
      0     0      195.7258   396      303.8740   ZeroHalf: 3     4352   35.59%
Detecting symmetries...
      0     0      195.8981   407      303.8740   ZeroHalf: 9     4486   35.53%
      0     0      196.0731   441      303.8740   ZeroHalf: 1     4602   35.48%
      0     0      196.7409   386      303.8740       Cuts: 6     4877   35.26%
      0     0      197.0028   385      303.8740       Cuts: 4     5074   35.17%
      0     0      198.2078   381      303.8740   ZeroHalf: 4     5368   34.77%
      0     0      198.2801   366      303.8740       Cuts: 2     5438   34.75%
      0     0      198.3648   439      303.8740   ZeroHalf: 3     5571   34.70%
      0     0      198.9552   383      303.8740       Cuts: 8     5783   34.53%
      0     0      198.9807   422      303.8740   ZeroHalf: 3     5914   34.52%
      0     0      199.2759   434      303.8740   ZeroHalf: 1     6139   34.42%
      0     0      199.2872   424      303.8740   ZeroHalf: 1     6180   34.42%
Detecting symmetries...
      0     2      199.2872   424      303.8740      199.2872     6180   34.42%
Elapsed time = 1.32 sec. (2527.28 ticks, tree = 0.02 MB, solutions = 1)
      5     6      212.1733   226      303.8740      201.6827    10255   33.63%
    169    98        cutoff            303.8740      201.6827    44903   33.63%
    590   273      249.4119   225      303.8740      202.9388   103441   33.22%
    666   362        cutoff            303.8740      202.9388   151307   33.22%
    864   430        cutoff            303.8740      202.9388   189190   33.22%
   1097   507      253.4521   170      303.8740      202.9388   230872   33.22%
   1293   744        cutoff            303.8740      202.9388   326564   33.22%
   1419   801      275.6729   142      303.8740      202.9388   355657   33.22%
   1699   854      274.7569   251      303.8740      205.9849   378018   32.21%
*  2512  1513      integral     0      300.4815      212.6040   613795   29.25%
   2670  1507      296.3474    95      300.4815      212.6040   640749   29.25%
Elapsed time = 4.20 sec. (5640.53 ticks, tree = 1.73 MB, solutions = 2)
   4063  2245        cutoff            300.4815      221.0280   907830   26.44%
   5640  2864      282.9226   129      300.4815      250.0523  1177578   16.78%
*  6159  3006      integral     0      292.7890      252.7277  1241371   13.68%

Performing restart 1

Repeating presolve.
Tried aggregator 1 time.
MIP Presolve eliminated 13 rows and 42 columns.
MIP Presolve modified 8264 coefficients.
Reduced MIP has 1042 rows, 2186 columns, and 23874 nonzeros.
Reduced MIP has 2165 binaries, 0 generals, 0 SOSs, and 0 indicators.
Presolve time = 0.02 sec. (45.46 ticks)
Tried aggregator 1 time.
MIP Presolve eliminated 0 rows and 1 columns.
MIP Presolve modified 8 coefficients.
Reduced MIP has 1042 rows, 2185 columns, and 23865 nonzeros.
Reduced MIP has 2164 binaries, 0 generals, 0 SOSs, and 0 indicators.
Presolve time = 0.01 sec. (22.71 ticks)
Represolve time = 0.09 sec. (123.48 ticks)
   7221     0      199.7901   424      292.7890      Cuts: 29  1502760   12.37%
   7221     0      199.9418   421      292.7890  LiftProj: 20  1502995   12.37%
   7221     0      199.9806   430      292.7890       Cuts: 3  1503101   12.37%
   7221     0      201.3778   404      292.7890       Cuts: 3  1503794   12.37%
   7221     0      202.8743   439      292.7890      Cuts: 19  1504394   12.37%
   7221     0      205.8481   441      292.7890   ZeroHalf: 4  1505228   12.37%
   7221     2      205.8481   442      292.7890      256.5800  1505233   12.37%
   7223     3      205.8567   448      292.7890      256.5800  1505311   12.37%
   7226     4      262.7790    47      292.7890      256.5800  1509965   12.37%
   7269     7      231.5866   227      292.7890      256.5800  1512168   12.37%
   7363    14      259.7542   150      292.7890      256.5800  1531163   12.37%
   7568    21      259.9404   138      292.7890      256.5800  1569533   12.37%
   8399   157        cutoff            292.7890      256.5800  1652607   12.37%
Elapsed time = 13.97 sec. (19525.76 ticks, tree = 0.58 MB, solutions = 3)
   8977    34        cutoff            292.7890      256.5800  1748000   12.37%
   9239    18        cutoff            292.7890      256.5800  1799425   12.37%
   9442    12        cutoff            292.7890      256.5800  1833470   12.37%
   9503     8        cutoff            292.7890      256.5800  1855786   12.37%
   9570     9        cutoff            292.7890      256.5800  1867666   12.37%
   9633     7    infeasible            292.7890      256.5800  1882029   12.37%
   9710    20      239.8378   282      292.7890      256.5800  1894129   12.37%
   9790    21      253.5799   287      292.7890      256.5800  1918787   12.37%

GUB cover cuts applied:  5
Clique cuts applied:  1
Mixed integer rounding cuts applied:  1
Zero-half cuts applied:  35
Lift and project cuts applied:  3
Gomory fractional cuts applied:  2

Root node processing (before b&c):
  Real time             =    1.28 sec. (2478.03 ticks)
Parallel b&c, 20 threads:
  Real time             =   18.67 sec. (25290.41 ticks)
  Sync time (average)   =    9.09 sec.
  Wait time (average)   =    0.01 sec.
                          ------------
Total (root+branch&cut) =   19.95 sec. (27768.44 ticks)
Feasible solution found!
Truck nodes:
Stage 1 at customer 0 with arrival time is: 0
Stage 1 at customer 0 with departure time is: 0
Stage 2 at customer 1 with arrival time is: 15.1967
Stage 2 at customer 1 with departure time is: 15.1967
Stage 3 at customer 7 with arrival time is: 65.0199
Stage 3 at customer 7 with departure time is: 65.0199
Stage 4 at customer 8 with arrival time is: 70.2555
Stage 4 at customer 8 with departure time is: 70.2555
Stage 5 at customer 9 with arrival time is: 112.844
Stage 5 at customer 9 with departure time is: 112.844
Stage 6 at customer 10 with arrival time is: 131.248
Stage 6 at customer 10 with departure time is: 131.248
Stage 7 at customer 6 with arrival time is: 178.187
Stage 7 at customer 6 with departure time is: 179.187
Stage 8 at customer 4 with arrival time is: 189.271
Stage 8 at customer 4 with departure time is: 195.886
Stage 9 at customer 3 with arrival time is: 229.316
Stage 9 at customer 3 with departure time is: 229.316
Stage 10 at customer 2 with arrival time is: 235.453
Stage 10 at customer 2 with departure time is: 235.453
Stage 11 at customer 11 with arrival time is: 292.789
Stage 11 at customer 11 with departure time is: 292.789
Truck arcs:
Arc 1 connecting 0 and 1 with cost 15.1967 
Arc 2 connecting 1 and 7 with cost 49.8232 
Arc 3 connecting 7 and 8 with cost 5.23565 
Arc 4 connecting 8 and 9 with cost 42.5886 
Arc 5 connecting 9 and 10 with cost 18.404 
Arc 6 connecting 10 and 6 with cost 46.9386 
Arc 7 connecting 6 and 4 with cost 10.0844 
Arc 8 connecting 4 and 3 with cost 33.4296 
Arc 9 connecting 3 and 2 with cost 6.13737 
Arc 10 connecting 2 and 11 with cost 57.336 
Customer 5 served by drone.
Drone fly from 6 at stage 7 to serve 5 and then fly back to 4 at stage 8. 
Truck arcs during this sortie: 6--->4
Truck travel time from stage 7 to 8 is: 10.0844
Total drone travel time: 15.6993
Drone arrival time: 194.886
Truck arrival time: 189.271
Truck departure time = max(d/a, t/a) plus (sl/sr): 195.886
Done!
-------------------------Re-calculated objective-----------------------
292.789
------------------------------------------------------------------------
Solve time: 19.961
OBJECTIVE VALUE: 292.789, NUMBER OF SORTIES: 1.
Number of revisit: 0
In write mode
